/*********************************************
 * OPL 20.1.0.0 Data
 * Author: gunjan
 * Creation Date: Sep 27, 2021 at 8:00:29 PM
 *********************************************/
nbResidents = 7;
nbPatients = 12;
minPatients = 1;
maxPatients = 3;
maxLoad = 105;
patientData = [
   <59,2>,
   <57,2>, 
   <50,2>, 
   <49,1>,
   <47,1>,  
   <44,2>, 
   <42,2>, 
   <40,2>, 
   <39,2>, 
   <39,2>,
   <39,1>, 
   <39,1>
];

